
  22   10
  10   10   10   10   10   10   10   10   10   10

   0   0   0   0   0   0   0   0   0   0   0   2 2 17 
   9  10  10  10  10  10  10  10  10  10  10   1 3 
   5  10  10  10  10  10  10  10  10  10  10   1 4 
   6  10  10  10  10  10  10  10  10  10  10   1 5 
  10  10  10  10  10  10  10  10  10  10  10   1 6 
   4  10  10  10  10  10  10  10  10  10  10   1 7 
   6  10  10  10  10  10  10  10  10  10  10   2 20 8 
   5  10  10  10  10  10  10  10  10  10  10   1 9 
  10  10  10  10  10  10  10  10  10  10  10   1 10 
   6  10  10  10  10  10  10  10  10  10  10   1 11 
   9  10  10  10  10  10  10  10  10  10  10   1 12 
   8  10  10  10  10  10  10  10  10  10  10   1 13 
   5  10  10  10  10  10  10  10  10  10  10   1 14 
   8  10  10  10  10  10  10  10  10  10  10   1 15 
   2  10  10  10  10  10  10  10  10  10  10   1 16 
   9  10  10  10  10  10  10  10  10  10  10   1 18 
   6  10  10  10  10  10  10  10  10  10  10   1 18 
   8  10  10  10  10  10  10  10  10  10  10   1 19 
   3  10  10  10  10  10  10  10  10  10  10   1 21 
   3  10  10  10  10  10  10  10  10  10  10   1 21 
   6  10  10  10  10  10  10  10  10  10  10   1 22
   0   0   0   0   0   0   0   0   0   0   0   0 
